# Solution for model GasLib-40
# Objective value = 52.8465811058121
loadshed[innode_1] 0
loadshed[innode_2] 0
loadshed[innode_3] 0
loadshed[innode_4] 0
loadshed[innode_5] 0
loadshed[innode_6] 0
loadshed[innode_7] 0
loadshed[innode_8] 0
loadshed[source_1] -7.9029115461406452e-02
loadshed[source_2] 7.9048829792067510e-02
loadshed[source_3] 3.3426131704363682e-01
loadshed[sink_1] 3.4615948079235281e-01
loadshed[sink_2] 0
loadshed[sink_3] 0
loadshed[sink_4] 0
loadshed[sink_5] 0
loadshed[sink_6] 0
loadshed[sink_7] 0
loadshed[sink_8] 0
loadshed[sink_9] 0
loadshed[sink_10] 0
loadshed[sink_11] 0
loadshed[sink_12] 1
loadshed[sink_13] 0
loadshed[sink_14] 0
loadshed[sink_15] 0
loadshed[sink_16] 0
loadshed[sink_17] 0
loadshed[sink_18] 0
loadshed[sink_19] 0
loadshed[sink_20] 0
loadshed[sink_21] 1
loadshed[sink_22] 0
loadshed[sink_23] 0
loadshed[sink_24] 8.8522382249297260e-01
loadshed[sink_25] 0
loadshed[sink_26] 0
loadshed[sink_27] 0
loadshed[sink_28] 0
loadshed[sink_29] 0
flow[source_1,sink_3] 1.7058401259360357e+02
flow[innode_1,sink_16] 1.6354166666666970e+01
flow[innode_6,sink_13] 9.23235335068405
flow[sink_13,sink_14] -7.1218133159826174e+00
flow[sink_14,sink_10] -2.3475979982649285e+01
flow[sink_25,sink_26] 4.9062500000001251e+01
flow[sink_26,sink_9] 3.2708333333334551e+01
flow[sink_9,sink_18] 1.6354166666667879e+01
flow[sink_26,sink_4] 0
flow[sink_4,sink_20] -6.2353281634969861e+01
flow[sink_18,sink_6] 0
flow[sink_25,innode_8] -1.3787567926026722e+02
flow[sink_6,sink_7] -4.3401350157875072e+01
flow[sink_6,sink_22] 27.0471834912084
flow[sink_7,sink_24] 1.8770687363128422e+00
flow[sink_22,sink_1] 1.0693016824541731e+01
flow[sink_24,sink_21] 0
flow[sink_21,sink_12] 0
flow[sink_7,sink_5] -6.1632585560854572e+01
flow[sink_5,sink_17] -7.7986752227521237e+01
flow[sink_17,sink_4] -4.5999114968303189e+01
flow[sink_17,sink_8] -4.8341803925884705e+01
flow[sink_3,sink_23] 16.3541666666697
flow[sink_8,sink_20] -6.4695970592551376e+01
flow[sink_25,sink_20] 1.4340341889418784e+02
flow[sink_25,sink_15] -8.0176759651273670e+01
flow[sink_15,sink_29] -5.4836849152065170e+01
flow[sink_29,sink_28] 1.6354166666667879e+01
flow[sink_29,sink_2] 5.8048243832541829e+01
flow[sink_2,sink_15] 4.1694077165875164e+01
flow[sink_29,innode_7] -1.4559342631794155e+02
flow[innode_4,sink_19] 0
flow[sink_19,innode_3] 3.5398472046775453e+01
flow[innode_4,innode_5] 1.0524681331598339e+02
flow[sink_27,innode_5] -1.0524681331598339e+02
flow[sink_27,sink_19] 8.8892646649316717e+01
flow[sink_10,sink_11] 3.2708333333333641e+01
flow[sink_10,innode_2] -3.7140007935874138e+01
flow[sink_10,innode_3] -3.5398472046775453e+01
flow[innode_6,sink_25] -9.23235335068405
flow[sink_11,innode_1] 1.6354166666666970e+01
flow[sink_19,innode_2] 3.7140007935874138e+01
flow[source_3,innode_4] 1.0524681331598339e+02
flow[source_2,innode_7] 1.4559342631794155e+02
flow[sink_3,innode_8] 1.3787567926026722e+02
pressure[innode_1] 7.6044239549171522e+01
pressure[innode_2] 78.1589436694426
pressure[innode_3] 7.8080557761537136e+01
pressure[innode_4] 81.01325
pressure[innode_5] 8.0940855692119612e+01
pressure[innode_6] 7.5123711296878582e+01
pressure[innode_7] 81.01325
pressure[innode_8] 8.0443052811354377e+01
pressure[source_1] 81.01325
pressure[source_2] 81.01325
pressure[source_3] 81.01325
pressure[sink_1] 1.01325
pressure[sink_2] 7.5648768679892470e+01
pressure[sink_3] 8.0443052811354377e+01
pressure[sink_4] 3.6362248040973938e+01
pressure[sink_5] 2.8794864207764050e+01
pressure[sink_6] 2.5665567560290192e+00
pressure[sink_7] 3.1623538405356388e+00
pressure[sink_8] 3.6428375395320408e+01
pressure[sink_9] 69.7105900668023
pressure[sink_10] 7.6195940856775067e+01
pressure[sink_11] 7.6044239549171522e+01
pressure[sink_12] 1.01325
pressure[sink_13] 7.5072814875725840e+01
pressure[sink_14] 7.5085559967299133e+01
pressure[sink_15] 7.5512646707172479e+01
pressure[sink_16] 7.5022589714353842e+01
pressure[sink_17] 3.4604313544278440e+01
pressure[sink_18] 69.1188475730026
pressure[sink_19] 78.1589436694426
pressure[sink_20] 40.9367747086515
pressure[sink_21] 1.01325
pressure[sink_22] 1.7087853683544605e+00
pressure[sink_23] 8.0278334799694591e+01
pressure[sink_24] 1.01325
pressure[sink_25] 7.5123711296878582e+01
pressure[sink_26] 71.6682682346869
pressure[sink_27] 80.0675016167972
pressure[sink_28] 7.6823913933970189e+01
pressure[sink_29] 7.7119196207587379e+01
interdiction[source_1,sink_3] 0
interdiction[innode_1,sink_16] 0
interdiction[innode_6,sink_13] 0
interdiction[sink_13,sink_14] 0
interdiction[sink_14,sink_10] 0
interdiction[sink_25,sink_26] 0
interdiction[sink_26,sink_9] 0
interdiction[sink_9,sink_18] 0
interdiction[sink_26,sink_4] 1
interdiction[sink_4,sink_20] 0
interdiction[sink_18,sink_6] 1
interdiction[sink_25,innode_8] 0
interdiction[sink_6,sink_7] 0
interdiction[sink_6,sink_22] 0
interdiction[sink_7,sink_24] 0
interdiction[sink_22,sink_1] 0
interdiction[sink_24,sink_21] 0
interdiction[sink_21,sink_12] 0
interdiction[sink_7,sink_5] 0
interdiction[sink_5,sink_17] 0
interdiction[sink_17,sink_4] 0
interdiction[sink_17,sink_8] 0
interdiction[sink_3,sink_23] 0
interdiction[sink_8,sink_20] 0
interdiction[sink_25,sink_20] 0
interdiction[sink_25,sink_15] 0
interdiction[sink_15,sink_29] 0
interdiction[sink_29,sink_28] 0
interdiction[sink_29,sink_2] 0
interdiction[sink_2,sink_15] 0
interdiction[sink_29,innode_7] 0
interdiction[innode_4,sink_19] 1
interdiction[sink_19,innode_3] 0
interdiction[innode_4,innode_5] 0
interdiction[sink_27,innode_5] 0
interdiction[sink_27,sink_19] 0
interdiction[sink_10,sink_11] 0
interdiction[sink_10,innode_2] 0
interdiction[sink_10,innode_3] 0
interdiction[innode_6,sink_25] 0
interdiction[sink_11,innode_1] 0
interdiction[sink_19,innode_2] 0
interdiction[source_3,innode_4] 0
interdiction[source_2,innode_7] 0
interdiction[sink_3,innode_8] 0
WCcheckFlow[source_1,sink_3] 39
WCcheckFlow[innode_1,sink_16] 1
WCcheckFlow[innode_6,sink_13] 13
WCcheckFlow[sink_13,sink_14] 12
WCcheckFlow[sink_14,sink_10] 11
WCcheckFlow[sink_25,sink_26] 3
WCcheckFlow[sink_26,sink_9] 2
WCcheckFlow[sink_9,sink_18] 1
WCcheckFlow[sink_26,sink_4] 0
WCcheckFlow[sink_4,sink_20] -11
WCcheckFlow[sink_18,sink_6] 0
WCcheckFlow[sink_25,innode_8] -36
WCcheckFlow[sink_6,sink_7] -3
WCcheckFlow[sink_6,sink_22] 2
WCcheckFlow[sink_7,sink_24] 3
WCcheckFlow[sink_22,sink_1] 1
WCcheckFlow[sink_24,sink_21] 2
WCcheckFlow[sink_21,sink_12] 1
WCcheckFlow[sink_7,sink_5] -7
WCcheckFlow[sink_5,sink_17] -8
WCcheckFlow[sink_17,sink_4] -10
WCcheckFlow[sink_17,sink_8] 1
WCcheckFlow[sink_3,sink_23] 1
WCcheckFlow[sink_8,sink_20] 0
WCcheckFlow[sink_25,sink_20] 12
WCcheckFlow[sink_25,sink_15] 6
WCcheckFlow[sink_15,sink_29] 5
WCcheckFlow[sink_29,sink_28] 1
WCcheckFlow[sink_29,sink_2] 1
WCcheckFlow[sink_2,sink_15] 0
WCcheckFlow[sink_29,innode_7] 2
WCcheckFlow[innode_4,sink_19] 0
WCcheckFlow[sink_19,innode_3] -5
WCcheckFlow[innode_4,innode_5] -2
WCcheckFlow[sink_27,innode_5] 3
WCcheckFlow[sink_27,sink_19] -4
WCcheckFlow[sink_10,sink_11] 3
WCcheckFlow[sink_10,innode_2] 1
WCcheckFlow[sink_10,innode_3] 6
WCcheckFlow[innode_6,sink_25] -14
WCcheckFlow[sink_11,innode_1] 2
WCcheckFlow[sink_19,innode_2] 0
WCcheckFlow[source_3,innode_4] -1
WCcheckFlow[source_2,innode_7] -1
WCcheckFlow[sink_3,innode_8] 37
